100
32
3
7
10
1
26
13
3
19
27
22
14
17
1
11
12
11
13
26
18
20
10
16
8
11
22
19
6
4
19
21
11
6
18
4
8
1
18
3
18
26
19
23
5
17
1
7
11
32
2
3
27
8
24
28
5
2
16
4
25
25
12
1
3
18
4
3
4
2
11
23
28
2
8
7
21
22
8
20
5
20
21
7
26
6
19
3
9
4
9
29
6
3
6
11
19
14
14
15
10
3